\Problem name: 

Minimize
OBJROW: 90 x_0_l + 180 x_0_g + 25 x_0_s + 90 x_1_l + 180 x_1_g + 25 x_1_s
Subject To
constr(0):  x_0_l + x_0_g + x_0_s = 10
constr(1):  x_1_l + x_1_g + x_1_s = 6
constr(2):  0.00500 x_0_l + 0.90000 x_0_g + 0.09000 x_0_s >= -0
constr(3):  0.00500 x_0_l + 0.90000 x_0_g + 0.09000 x_0_s <= 0.95000
constr(4):  0.14000 x_0_l + 0.27000 x_0_s >= 1.90000
constr(5):  0.14000 x_0_l + 0.27000 x_0_s <= 2
constr(6):  0.00500 x_1_l + 0.90000 x_1_g + 0.09000 x_1_s >= -0
constr(7):  0.00500 x_1_l + 0.90000 x_1_g + 0.09000 x_1_s <= 2.40000
constr(8):  0.14000 x_1_l + 0.27000 x_1_s >= 0.72000
constr(9):  0.14000 x_1_l + 0.27000 x_1_s <= 1.14000
constr(10):  x_0_l + x_1_l <= 5
constr(11):  x_0_g + x_1_g <= 5
constr(12):  x_0_s + x_1_s <= 12
Bounds
End
